language Essence 1.3

letting bot_end be
        [62, 1175, 1112, 122, 1177, 868, 1113, 21, 282, 1115, 33, 34, 309, 1147, 1054, 1061, 1148; int(1..17)]
letting bot_start be [1137, 310, 7, 1116, 156, 91, 36, 1086, 1177, 37, 1048, 1051, 1147, 115, 184, 60, 54; int(1..17)]
letting buffer_col be 2
letting buffer_row be 2
letting corridor_size be 1
letting n_shelves_col be 9
letting n_shelves_row be 17
letting shelf_col_size be 2
letting shelf_row_size be 1
